NAME : P-n22-k8.345867.tour
COMMENT : Length = 345867
COMMENT : Found by LKH [Keld Helsgaun] Sun Dec 17 22:31:54 2017
TYPE : TOUR
DIMENSION : 29
TOUR_SECTION
1
20
28
14
12
29
15
19
21
23
17
16
24
13
18
22
27
11
10
3
2
25
9
7
4
5
26
8
6
-1
EOF
